# vtk DataFile Version 1.0
3D triangulation data
ASCII

DATASET POLYDATA
POINTS 10 float
15 5 0
20 5 0
20 0 0
15 0 0
10 5 0
5 5 0
0 5 0
0 0 0
5 0 0
10 0 0
LINES 17 51
2	0	1
2	1	2
2	3	2
2	3	1
2	4	0
2	5	4
2	6	5
2	7	6
2	7	8
2	5	8
2	7	5
2	9	3
2	0	3
2	9	0
2	8	9
2	8	4
2	4	9
POINT_DATA 10
VECTORS Displacements float
-9.375e-05 -0.00234191 0
-0.00046875 -0.000375 0
0 0 0
0.0003125 -0.00221691 0
0.00040625 -0.00291421 0
0.00078125 -0.00184191 0
0.00078125 0 0
0 0 0
6.25e-05 -0.00221691 0
0.00025 -0.00303921 0
CELL_DATA 17
SCALARS Stresses float 1
LOOKUP_TABLE default
-14984523.897397
-14999121.027834
-12480340.009375
21220083.675007
-19998689.744263
-14995400.316877
13570.531863
2441.406224
2519658.516142
15002066.251277
-21206321.736504
2502704.697669
-4999339.827272
7072151.565732
7502704.630014
-7069983.981421
5000097.653856
SCALARS Deformations float 1
LOOKUP_TABLE default
-0.000075
-0.000075
-0.000062
0.000106
-0.000100
-0.000075
0.000000
0.000000
0.000013
0.000075
-0.000106
0.000013
-0.000025
0.000035
0.000038
-0.000035
0.000025
SCALARS Forces float 1
LOOKUP_TABLE default
-1498.452390
-1499.912103
-1248.034001
2122.008368
-1999.868974
-1499.540032
1.357053
0.244141
251.965852
1500.206625
-2120.632174
250.270470
-499.933983
707.215157
750.270463
-706.998398
500.009765
